
        $ From http://www.csplib.org/Problems/prob009/data/helmut.pdf
        $ Problem number 115
        $ Sequence length : 25
        language ESSENCE' 1.0
        letting sizemaster be 384
        letting sizes be sequence(1,4,8,9,11,12,19,21,27,32,35,44,45,46,47,51,60,67,84,89,96,108,120,180,204)
        